
Gurobi 8.1.0 (win64, Python) logging started 01/28/21 14:05:29

Optimize a model with 4 rows, 9 columns and 15 nonzeros
Variable types: 9 continuous, 0 integer (0 binary)
Coefficient statistics:
  Matrix range     [1e+00, 1e+01]
  Objective range  [1e+00, 1e+00]
  Bounds range     [0e+00, 0e+00]
  RHS range        [1e+01, 6e+01]

---------------------------------------------------------------------------
Multi-objectives: starting optimization with 3 objectives ... 
---------------------------------------------------------------------------

Multi-objectives: applying initial presolve ...
---------------------------------------------------------------------------

Presolve removed 1 rows and 1 columns
Presolved: 3 rows and 8 columns
---------------------------------------------------------------------------

Multi-objectives: optimize objective 1 (obj1) ...
---------------------------------------------------------------------------

Presolve removed 3 rows and 8 columns
Presolve time: 0.37s
Presolve: All rows and columns removed
Iteration    Objective       Primal Inf.    Dual Inf.      Time
       0    0.0000000e+00   0.000000e+00   0.000000e+00      0s

Solved in 0 iterations and 0.37 seconds
Optimal objective  0.000000000e+00
---------------------------------------------------------------------------

Multi-objectives: optimize objective 2 (obj2) ...
---------------------------------------------------------------------------

Iteration    Objective       Primal Inf.    Dual Inf.      Time
       0    2.2000000e+01   0.000000e+00   1.400000e+01      0s
       2    0.0000000e+00   0.000000e+00   0.000000e+00      0s

Solved in 2 iterations and 0.43 seconds
Optimal objective  0.000000000e+00
---------------------------------------------------------------------------

Multi-objectives: optimize objective 3 (obj3) ...
---------------------------------------------------------------------------

Iteration    Objective       Primal Inf.    Dual Inf.      Time
       0    5.6000000e+01   0.000000e+00   0.000000e+00      0s

Solved in 0 iterations and 0.43 seconds
Optimal objective  5.600000000e+01

---------------------------------------------------------------------------
Multi-objectives: solved in 0.43 seconds, solution count 2

Parameter ObjNumber unchanged
   Value: 0  Min: 0  Max: 2000000000  Default: 0
Changed value of parameter ObjNumber to 1
   Prev: 0  Min: 0  Max: 2000000000  Default: 0
Changed value of parameter ObjNumber to 2
   Prev: 1  Min: 0  Max: 2000000000  Default: 0

Gurobi 8.1.0 (win64, Python) logging started 01/28/21 15:32:36


Gurobi 8.1.0 (win64, Python) logging started 01/28/21 15:33:00

Optimize a model with 6 rows, 10 columns and 18 nonzeros
Coefficient statistics:
  Matrix range     [1e+00, 1e+00]
  Objective range  [5e+00, 3e+01]
  Bounds range     [0e+00, 0e+00]
  RHS range        [1e+00, 1e+00]
Presolve removed 4 rows and 6 columns
Presolve time: 0.00s
Presolved: 2 rows, 4 columns, 8 nonzeros

Iteration    Objective       Primal Inf.    Dual Inf.      Time
       0    0.0000000e+00   2.000000e+00   0.000000e+00      0s
       1    3.0000000e+01   0.000000e+00   0.000000e+00      0s

Solved in 1 iterations and 0.00 seconds
Optimal objective  3.000000000e+01

Gurobi 8.1.0 (win64, Python) logging started 01/28/21 15:35:02

Optimize a model with 6 rows, 10 columns and 18 nonzeros
Coefficient statistics:
  Matrix range     [1e+00, 1e+00]
  Objective range  [5e+00, 3e+01]
  Bounds range     [0e+00, 0e+00]
  RHS range        [1e+00, 1e+00]
Presolve removed 4 rows and 6 columns
Presolve time: 0.00s
Presolved: 2 rows, 4 columns, 8 nonzeros

Iteration    Objective       Primal Inf.    Dual Inf.      Time
       0    0.0000000e+00   2.000000e+00   0.000000e+00      0s
       1    3.0000000e+01   0.000000e+00   0.000000e+00      0s

Solved in 1 iterations and 0.00 seconds
Optimal objective  3.000000000e+01
